c uprop, v00.0, 
c reading from data/prog253.c.cnf
c done reading: 0.0021
p cnf 120 459
-67 -83 0
-69 -83 0
67 69 83 0
67 69 -90 0
-67 -69 -90 0
-67 69 90 0
67 -69 90 0
-73 83 0
-73 -74 0
73 74 -83 0
74 -78 -83 0
-74 -78 83 0
74 78 83 0
-74 78 -83 0
73 -82 0
-82 -85 0
-73 82 85 0
-73 85 -87 0
73 -85 -87 0
73 85 87 0
-73 -85 87 0
82 -88 0
-88 -92 0
-82 88 92 0
-68 -82 92 0
-68 82 -92 0
68 82 92 0
68 -82 -92 0
-66 88 0
-66 -71 0
66 71 -88 0
-65 71 -88 0
-65 -71 88 0
65 71 88 0
65 -71 -88 0
-64 66 0
-64 -76 0
64 -66 76 0
-63 -66 76 0
-63 66 -76 0
63 66 76 0
63 -66 -76 0
-62 64 0
-62 -80 0
62 -64 80 0
-61 -64 80 0
-61 64 -80 0
61 64 80 0
61 -64 -80 0
-60 74 0
-60 67 0
60 -67 -74 0
-59 -67 -74 0
-59 67 74 0
59 67 -74 0
59 -67 74 0
58 -69 -85 0
58 -60 -85 0
58 -60 -69 0
-58 69 85 0
-58 60 85 0
-58 60 69 0
-57 -58 85 0
-57 -58 69 0
-57 -58 60 0
57 58 -85 0
57 58 -69 0
57 58 -60 0
57 -60 -69 -85 0
-57 60 69 85 0
56 -74 -92 0
56 -58 -92 0
56 -58 -74 0
-56 74 92 0
-56 58 92 0
-56 58 74 0
-55 -56 92 0
-55 -56 74 0
-55 -56 58 0
55 56 -92 0
55 56 -74 0
55 56 -58 0
55 -58 -74 -92 0
-55 58 74 92 0
54 -71 -85 0
54 -56 -71 0
54 -56 -85 0
-54 71 85 0
-54 56 71 0
-54 56 85 0
-54 71 -94 0
-54 85 -94 0
-54 56 -94 0
54 -71 94 0
54 -85 94 0
54 -56 94 0
-56 -71 -85 94 0
56 71 85 -94 0
-76 -92 95 0
-54 -76 95 0
-54 -92 95 0
76 92 -95 0
54 76 -95 0
54 92 -95 0
-76 95 0
-92 95 0
-54 95 0
-54 -76 -92 0
-71 -80 96 0
-80 -95 96 0
-71 -95 96 0
71 80 -96 0
80 95 -96 0
71 95 -96 0
-80 96 0
-71 96 0
-95 96 0
-71 -80 -95 0
76 -97 0
96 -97 0
-76 -96 97 0
-76 96 0
76 -96 0
-80 -97 0
-80 97 0
80 -97 0
-67 -86 0
-69 -86 0
67 69 86 0
67 69 -93 0
-67 -69 -93 0
-67 69 93 0
67 -69 93 0
-72 86 0
-59 -72 0
59 72 -86 0
59 -77 -86 0
-59 -77 86 0
59 77 86 0
-59 77 -86 0
72 -81 0
-57 -81 0
57 -72 81 0
57 -72 -98 0
-57 72 -98 0
57 72 98 0
-57 -72 98 0
81 -99 0
-55 -99 0
55 -81 99 0
55 -81 -100 0
-55 81 -100 0
55 81 100 0
-55 -81 100 0
99 -103 0
-94 -103 0
94 -99 103 0
94 -99 -106 0
-94 99 -106 0
94 99 106 0
-94 -99 106 0
103 -107 0
-103 107 0
-103 -108 0
103 108 0
107 -109 0
-107 109 0
-107 -110 0
107 110 0
109 -111 0
-109 111 0
-109 -112 0
109 112 0
111 -113 0
-111 113 0
-111 -114 0
111 114 0
113 -115 0
-113 115 0
-113 -116 0
113 116 0
-102 -117 0
102 117 0
102 -118 0
-102 118 0
117 -119 0
-105 -119 0
105 -117 119 0
105 -117 -120 0
-105 117 -120 0
105 117 120 0
-105 -117 120 0
-53 119 0
-52 -53 0
52 53 -119 0
-50 52 -119 0
-50 -52 119 0
50 52 119 0
50 -52 -119 0
-49 53 0
-48 -49 0
48 49 -53 0
-46 48 -53 0
-46 -48 53 0
46 48 53 0
46 -48 -53 0
-45 49 0
-44 -45 0
44 45 -49 0
-42 44 -49 0
-42 -44 49 0
42 44 49 0
42 -44 -49 0
-41 45 0
-40 -41 0
40 41 -45 0
-38 40 -45 0
-38 -40 45 0
38 40 45 0
38 -40 -45 0
37 -102 0
-37 102 0
36 -102 -105 0
-36 102 105 0
-36 105 0
-36 102 0
-35 -36 105 0
-35 -36 102 0
-35 -36 0
35 36 -105 0
35 36 -102 0
-35 102 105 0
34 -52 -105 0
34 -36 -52 0
34 -36 -105 0
-34 52 105 0
-34 36 52 0
-34 36 105 0
-33 -34 52 0
-33 -34 105 0
-33 -34 36 0
33 34 -52 0
33 34 -105 0
33 34 -36 0
33 -36 -52 -105 0
-33 36 52 105 0
32 -48 -52 0
32 -34 -48 0
32 -34 -52 0
-32 48 52 0
-32 34 48 0
-32 34 52 0
-31 -32 48 0
-31 -32 52 0
-31 -32 34 0
31 32 -48 0
31 32 -52 0
31 32 -34 0
31 -34 -48 -52 0
-31 34 48 52 0
30 -44 -48 0
30 -32 -44 0
30 -32 -48 0
-30 44 48 0
-30 32 44 0
-30 32 48 0
-29 -30 44 0
-29 -30 48 0
-29 -30 32 0
29 30 -44 0
29 30 -48 0
29 30 -32 0
29 -32 -44 -48 0
-29 32 44 48 0
28 -40 -44 0
28 -30 -40 0
28 -30 -44 0
-28 40 44 0
-28 30 40 0
-28 30 44 0
-27 -28 40 0
-27 -28 44 0
-27 -28 30 0
27 28 -40 0
27 28 -44 0
27 28 -30 0
27 -30 -40 -44 0
-27 30 40 44 0
-26 40 0
-26 28 0
26 -28 -40 0
-25 -28 -40 0
-25 28 40 0
25 28 -40 0
25 -28 40 0
-24 33 0
24 -33 0
23 -31 0
-23 31 0
22 -29 -102 0
-22 29 102 0
-22 29 0
-22 102 0
-21 -22 29 0
-21 -22 102 0
-21 -22 0
21 22 -29 0
21 22 -102 0
-21 29 102 0
20 -27 -105 0
20 -22 -27 0
20 -22 -105 0
-20 27 105 0
-20 22 27 0
-20 22 105 0
-19 -20 27 0
-19 -20 105 0
-19 -20 22 0
19 20 -27 0
19 20 -105 0
19 20 -22 0
19 -22 -27 -105 0
-19 22 27 105 0
18 -25 -52 0
18 -20 -25 0
18 -20 -52 0
-18 25 52 0
-18 20 25 0
-18 20 52 0
18 -25 0
18 -52 0
18 -20 0
-20 -25 -52 0
17 -26 -48 0
17 -18 -26 0
17 -18 -48 0
-17 26 48 0
-17 18 26 0
-17 18 48 0
17 -26 0
17 -48 0
17 -18 0
-18 -26 -48 0
-16 44 0
-16 17 0
16 -17 -44 0
17 -44 0
-17 44 0
-16 -40 0
16 -40 0
-16 40 0
-37 -84 0
37 84 0
37 -91 0
-37 91 0
-70 84 0
-35 -70 0
35 70 -84 0
35 -75 -84 0
-35 -75 84 0
35 75 84 0
-35 75 -84 0
70 -79 0
-24 -79 0
24 -70 79 0
-15 24 -70 0
-15 -24 70 0
15 24 70 0
15 -24 -70 0
-14 79 0
-14 -23 0
14 23 -79 0
23 -79 -101 0
-23 79 -101 0
23 79 101 0
-23 -79 101 0
14 -104 0
-21 -104 0
-14 21 104 0
-14 21 -51 0
14 -21 -51 0
14 21 51 0
-14 -21 51 0
-47 104 0
-19 -47 0
19 47 -104 0
19 -43 -104 0
-19 -43 104 0
19 43 104 0
-19 43 -104 0
-39 47 0
39 -47 0
-13 -47 0
13 47 0
-12 39 0
12 -39 0
-11 -39 0
11 39 0
-10 12 0
10 -12 0
-9 -12 0
9 12 0
-8 10 0
8 -10 0
-7 -10 0
7 10 0
-6 8 0
6 -8 0
-5 -8 0
5 8 0
-4 67 0
-4 37 0
4 -37 -67 0
37 -67 0
-37 67 0
3 -35 -69 0
3 -4 -69 0
3 -4 -35 0
-3 35 69 0
-3 4 69 0
-3 4 35 0
-3 69 0
-3 35 0
-3 4 0
4 35 69 0
2 -24 -59 0
2 -3 -59 0
2 -3 -24 0
-2 24 59 0
-2 3 59 0
-2 3 24 0
-2 59 0
-2 24 0
-2 3 0
3 24 59 0
1 -23 -57 0
1 -2 -57 0
1 -2 -23 0
-1 23 57 0
-1 2 57 0
-1 2 23 0
-1 57 0
-1 23 0
-1 2 0
2 23 57 0
-21 -55 89 0
-1 -55 89 0
-1 -21 89 0
21 55 -89 0
1 55 -89 0
1 21 -89 0
-55 89 0
-21 89 0
-1 89 0
-1 -21 -55 0
-19 -94 0
-89 -94 0
-19 -89 0
19 89 94 0
